Route #1: 23
Route #2: 9
Route #3: 38
Route #4: 31
Route #5: 14 35 1 44 6
Route #6: 26 29 43 18 17 27
Route #7: 2 25 12 39 36 4 16 42
Route #8: 28 7 13 22 15
Route #9: 24 37 34 11 40 30 19
Route #10: 5 21 33 41 8 10 3 20 32
cost: 1070.024991601325
